6 24 4 10
4 12 16 16 5 18 16 7 18 18 17 16 18 4 13 9 16 12 7 14 18 16 17 5 
7.67 5.83 1.79 4.88 3.12 5.28 0.85 2.88 3.25 4.71 7.59 1 0.16 0.33 4.09 4.17 3.32 7.23 5.02 6.35 0.24 0.16 4.41 6.32 
7.08 5.03 5.87 1.4 3.26 7.37 0.62 2.66 0.92 6.54 1.92 5.69 1.18 1.52 6.58 0.7 7.18 7.04 0.06 4.11 4.36 3.46 1.16 2.91 
5.1 5.66 0.21 5.5 6.58 1.7 6.55 4.69 7.05 5.97 6.79 1.62 3.44 6.71 1.1 3.33 1.71 4.57 3.08 6.82 3.2 2.63 2.73 0.49 
6.14 3.97 1.63 2.02 5.79 5.28 0.71 4.35 3.54 7.86 0.68 6.9 7.56 3.18 3.85 4.15 4.24 2.39 1.49 3.11 4.5 0.77 5.15 5.88 
4 4 4 4 4 4 4 4 4 4 4 4 4 4 4 4 4 4 4 4 4 4 4 4 
3.01 3.07 4.23 0.43 3.24 7.27 1.75 4.52 0.32 3.02 6.49 7.27 3.98 4.5 0.63 7.91 2.89 5.64 0.58 6.31 0.2 7.41 4.66 1.6 
1 1 1 1 1 1 1 1 1 1 1 1 1 1 1 1 1 1 1 1 1 1 1 1 
1 1 1 1 1 1 1 1 1 1 1 1 1 1 1 1 1 1 1 1 1 1 1 1 
1 1 1 1 1 1 1 1 1 1 1 1 1 1 1 1 1 1 1 1 1 1 1 1 
1 1 1 1 1 1 1 1 1 1 1 1 1 1 1 1 1 1 1 1 1 1 1 1 
1 1 1 1 1 1 1 1 1 1 1 1 1 1 1 1 1 1 1 1 1 1 1 1 
1 1 1 1 1 1 1 1 1 1 1 1 1 1 1 1 1 1 1 1 1 1 1 1 
0.01 0.01 0.01 0.01 0.01 0.01 0.01 0.01 0.01 0.01 0.01 0.01 0.01 0.01 0.01 0.01 0.01 0.01 0.01 0.01 0.01 0.01 0.01 0.01 
0.02 0.02 0.02 0.02 0.02 0.02 0.02 0.02 0.02 0.02 0.02 0.02 0.02 0.02 0.02 0.02 0.02 0.02 0.02 0.02 0.02 0.02 0.02 0.02 
0.03 0.03 0.03 0.03 0.03 0.03 0.03 0.03 0.03 0.03 0.03 0.03 0.03 0.03 0.03 0.03 0.03 0.03 0.03 0.03 0.03 0.03 0.03 0.03 
0.04 0.04 0.04 0.04 0.04 0.04 0.04 0.04 0.04 0.04 0.04 0.04 0.04 0.04 0.04 0.04 0.04 0.04 0.04 0.04 0.04 0.04 0.04 0.04 
0.05 0.05 0.05 0.05 0.05 0.05 0.05 0.05 0.05 0.05 0.05 0.05 0.05 0.05 0.05 0.05 0.05 0.05 0.05 0.05 0.05 0.05 0.05 0.05 
1 1 1 1 1 1 1 1 1 1 1 1 1 1 1 1 1 1 1 1 1 1 1 1 
